p edge 60 341
e 1 12
e 1 16
e 1 18
e 1 26
e 1 28
e 1 34
e 1 39
e 1 41
e 1 47
e 1 49
e 1 50
e 1 58
e 2 9
e 2 14
e 2 16
e 2 23
e 2 30
e 2 34
e 2 43
e 2 47
e 2 54
e 2 55
e 2 56
e 2 59
e 3 7
e 3 13
e 3 14
e 3 22
e 3 27
e 3 28
e 3 32
e 3 33
e 3 34
e 3 37
e 3 45
e 3 50
e 3 58
e 3 59
e 3 60
e 4 5
e 4 12
e 4 19
e 4 20
e 4 23
e 4 30
e 4 43
e 4 51
e 5 6
e 5 10
e 5 22
e 5 24
e 5 27
e 5 31
e 5 37
e 5 42
e 5 49
e 5 50
e 5 51
e 5 59
e 6 7
e 6 14
e 6 18
e 6 21
e 6 22
e 6 23
e 6 31
e 6 48
e 6 51
e 6 52
e 6 53
e 6 58
e 7 11
e 7 19
e 7 41
e 7 47
e 7 50
e 8 17
e 8 22
e 8 23
e 8 33
e 8 34
e 8 36
e 8 39
e 8 43
e 8 45
e 8 51
e 8 52
e 9 15
e 9 21
e 9 27
e 9 31
e 9 44
e 9 57
e 10 11
e 10 29
e 10 46
e 10 48
e 10 54
e 10 57
e 10 59
e 11 12
e 11 15
e 11 17
e 11 31
e 11 38
e 11 41
e 11 42
e 11 54
e 11 56
e 11 58
e 11 60
e 12 13
e 12 15
e 12 23
e 12 38
e 12 40
e 12 42
e 12 45
e 12 50
e 12 59
e 13 15
e 13 22
e 13 31
e 13 37
e 13 42
e 13 48
e 13 49
e 13 53
e 14 16
e 14 17
e 14 32
e 14 36
e 14 42
e 14 43
e 14 46
e 14 49
e 14 51
e 14 54
e 15 27
e 15 30
e 15 42
e 15 44
e 15 47
e 15 50
e 15 54
e 15 58
e 16 21
e 16 22
e 16 27
e 16 40
e 16 47
e 16 60
e 17 29
e 17 30
e 17 31
e 17 40
e 17 41
e 18 21
e 18 23
e 18 29
e 18 31
e 18 37
e 18 39
e 18 41
e 18 49
e 18 51
e 18 53
e 18 55
e 18 56
e 18 58
e 18 60
e 19 25
e 19 26
e 19 27
e 19 28
e 19 34
e 19 35
e 19 39
e 19 44
e 19 55
e 19 57
e 19 60
e 20 31
e 20 39
e 20 41
e 20 42
e 20 47
e 20 50
e 20 53
e 20 54
e 20 60
e 21 24
e 21 39
e 21 41
e 21 42
e 21 43
e 21 52
e 21 55
e 22 25
e 22 36
e 22 44
e 22 45
e 22 47
e 22 56
e 23 26
e 23 27
e 23 28
e 23 33
e 23 36
e 23 40
e 23 48
e 23 56
e 24 26
e 24 37
e 24 40
e 24 41
e 24 45
e 24 48
e 24 54
e 24 55
e 24 58
e 25 30
e 25 35
e 25 39
e 25 46
e 25 47
e 25 48
e 25 50
e 25 51
e 25 54
e 25 55
e 26 29
e 26 30
e 26 35
e 26 47
e 26 49
e 26 54
e 26 56
e 27 29
e 27 30
e 27 31
e 27 34
e 27 42
e 27 44
e 27 49
e 27 54
e 27 55
e 27 56
e 27 57
e 28 36
e 28 39
e 28 43
e 28 51
e 28 55
e 28 60
e 29 30
e 29 31
e 29 32
e 29 34
e 29 39
e 29 43
e 29 48
e 29 52
e 29 56
e 30 38
e 30 50
e 31 42
e 31 43
e 31 46
e 31 60
e 32 34
e 32 37
e 32 49
e 32 53
e 32 57
e 33 36
e 33 37
e 33 42
e 33 44
e 33 45
e 33 49
e 33 52
e 33 54
e 33 58
e 34 38
e 34 41
e 34 55
e 34 57
e 35 37
e 35 39
e 35 46
e 35 47
e 35 48
e 35 51
e 35 56
e 35 57
e 36 40
e 36 46
e 36 56
e 36 58
e 37 49
e 37 59
e 37 60
e 38 45
e 38 46
e 38 60
e 39 42
e 39 49
e 39 53
e 39 58
e 40 42
e 40 47
e 40 54
e 40 56
e 41 45
e 41 51
e 41 58
e 41 60
e 42 46
e 42 47
e 43 46
e 43 57
e 44 56
e 45 53
e 46 60
e 47 60
e 48 49
e 48 51
e 48 56
e 48 60
e 50 56
e 50 60
e 51 52
e 51 53
e 51 57
e 52 54
e 52 58
e 53 55
e 53 59
e 56 60
e 58 59
